====================================================================================================================
File name: 200_40_91_15.def
Creation date: Mon Nov 24 20:40:32 CET 2014
Website: http://imopse.ii.pwr.edu.pl/
Reference:
Myszkowski P. B., Skowronski M. E., Olech L., Oslizlo K.,
Hybrid Ant Colony Optimization in solving Multi-Skill Resource-Constrained Project Scheduling Problem,
Soft Computing, DOI: DOI 10.1007/s00500-014-1455-x
====================================================================================================================
General characteristics:
Tasks: 200
Resources: 40
Precedence relations: 91
Number of skill types: 15
====================================================================================================================
ResourceID 	 Salary 	 Skills
1	 	 	11.8	 	 Q5: 2 	  Q12: 0 	  Q1: 0 	  Q3: 0 	  Q8: 1 	  Q6: 0
2	 	 	65.7	 	 Q9: 0 	  Q1: 1 	  Q13: 0 	  Q14: 0 	  Q11: 1 	  Q4: 2
3	 	 	69.9	 	 Q6: 2 	  Q10: 0 	  Q8: 0 	  Q11: 0 	  Q4: 0 	  Q12: 1
4	 	 	45.5	 	 Q10: 1 	  Q2: 0 	  Q1: 2 	  Q8: 0 	  Q3: 1 	  Q4: 1
5	 	 	70.9	 	 Q13: 1 	  Q7: 0 	  Q12: 1 	  Q14: 0 	  Q4: 2 	  Q11: 2
6	 	 	44.0	 	 Q12: 0 	  Q6: 0 	  Q8: 0 	  Q1: 0 	  Q9: 2 	  Q3: 1
7	 	 	65.8	 	 Q7: 2 	  Q2: 0 	  Q12: 0 	  Q9: 0 	  Q13: 0 	  Q11: 2
8	 	 	16.7	 	 Q11: 1 	  Q0: 2 	  Q7: 1 	  Q5: 0 	  Q12: 1 	  Q2: 1
9	 	 	60.6	 	 Q4: 2 	  Q3: 0 	  Q7: 0 	  Q11: 1 	  Q0: 1 	  Q2: 0
10	 	 	86.7	 	 Q12: 1 	  Q1: 0 	  Q5: 1 	  Q14: 1 	  Q13: 2 	  Q0: 2
11	 	 	54.3	 	 Q6: 0 	  Q8: 1 	  Q0: 0 	  Q9: 0 	  Q4: 2 	  Q13: 0
12	 	 	26.5	 	 Q2: 0 	  Q0: 1 	  Q4: 2 	  Q11: 0 	  Q7: 2 	  Q3: 2
13	 	 	79.0	 	 Q8: 2 	  Q5: 1 	  Q2: 2 	  Q1: 2 	  Q10: 1 	  Q3: 0
14	 	 	23.1	 	 Q6: 1 	  Q11: 1 	  Q12: 1 	  Q1: 0 	  Q5: 1 	  Q9: 0
15	 	 	44.7	 	 Q7: 2 	  Q10: 1 	  Q4: 0 	  Q14: 0 	  Q9: 0 	  Q11: 0
16	 	 	10.7	 	 Q3: 2 	  Q12: 2 	  Q8: 2 	  Q5: 0 	  Q14: 2 	  Q4: 0
17	 	 	32.5	 	 Q8: 1 	  Q2: 0 	  Q4: 0 	  Q9: 2 	  Q14: 0 	  Q10: 2
18	 	 	63.7	 	 Q6: 1 	  Q5: 0 	  Q9: 2 	  Q12: 2 	  Q11: 2 	  Q14: 1
19	 	 	56.1	 	 Q12: 2 	  Q1: 1 	  Q4: 0 	  Q7: 0 	  Q8: 1 	  Q11: 0
20	 	 	49.2	 	 Q12: 1 	  Q2: 1 	  Q1: 0 	  Q10: 2 	  Q6: 1 	  Q7: 1
21	 	 	76.6	 	 Q7: 0 	  Q11: 2 	  Q1: 0 	  Q2: 2 	  Q12: 1 	  Q14: 1
22	 	 	79.1	 	 Q0: 2 	  Q7: 0 	  Q14: 0 	  Q11: 0 	  Q12: 1 	  Q8: 1
23	 	 	50.6	 	 Q2: 1 	  Q3: 2 	  Q12: 0 	  Q8: 2 	  Q7: 2 	  Q13: 0
24	 	 	51.6	 	 Q8: 2 	  Q11: 0 	  Q12: 2 	  Q1: 0 	  Q7: 2 	  Q14: 1
25	 	 	66.3	 	 Q7: 1 	  Q13: 1 	  Q3: 1 	  Q4: 1 	  Q1: 2 	  Q14: 2
26	 	 	76.5	 	 Q12: 2 	  Q6: 1 	  Q13: 1 	  Q14: 2 	  Q0: 2 	  Q2: 0
27	 	 	82.2	 	 Q1: 2 	  Q6: 2 	  Q5: 0 	  Q8: 0 	  Q3: 0 	  Q12: 2
28	 	 	16.3	 	 Q8: 2 	  Q4: 1 	  Q12: 2 	  Q5: 1 	  Q14: 1 	  Q13: 0
29	 	 	98.4	 	 Q8: 0 	  Q14: 0 	  Q2: 1 	  Q5: 1 	  Q3: 1 	  Q11: 1
30	 	 	38.7	 	 Q2: 1 	  Q7: 0 	  Q8: 1 	  Q12: 2 	  Q6: 2 	  Q11: 1
31	 	 	11.8	 	 Q8: 1 	  Q7: 0 	  Q12: 1 	  Q3: 2 	  Q10: 1 	  Q5: 0
32	 	 	43.2	 	 Q12: 1 	  Q8: 1 	  Q5: 1 	  Q11: 0 	  Q6: 2 	  Q13: 2
33	 	 	21.9	 	 Q5: 0 	  Q14: 1 	  Q3: 2 	  Q13: 2 	  Q1: 2 	  Q6: 2
34	 	 	16.9	 	 Q6: 2 	  Q7: 0 	  Q3: 1 	  Q13: 0 	  Q1: 1 	  Q9: 2
35	 	 	36.2	 	 Q9: 2 	  Q1: 1 	  Q6: 2 	  Q10: 0 	  Q11: 0 	  Q12: 1
36	 	 	37.4	 	 Q12: 0 	  Q10: 2 	  Q4: 2 	  Q7: 1 	  Q0: 1 	  Q13: 2
37	 	 	99.9	 	 Q10: 1 	  Q8: 0 	  Q7: 0 	  Q3: 2 	  Q14: 1 	  Q2: 2
38	 	 	95.5	 	 Q5: 0 	  Q6: 0 	  Q4: 2 	  Q10: 0 	  Q0: 1 	  Q3: 2
39	 	 	27.0	 	 Q2: 1 	  Q13: 2 	  Q1: 2 	  Q12: 1 	  Q7: 0 	  Q9: 0
40	 	 	46.0	 	 Q8: 0 	  Q0: 1 	  Q2: 2 	  Q11: 0 	  Q3: 2 	  Q10: 2
====================================================================================================================
TaskID 	 Duration 	 Skill 	 Predecessor IDs
1	 	 	38	 Q8: 2
2	 	 	17	 Q3: 2
3	 	 	34	 Q9: 0
4	 	 	14	 Q10: 2
5	 	 	20	 Q3: 1
6	 	 	31	 Q2: 0
7	 	 	23	 Q6: 2
8	 	 	33	 Q5: 2
9	 	 	15	 Q2: 1
10	 	 	31	 Q13: 2
11	 	 	16	 Q12: 1
12	 	 	35	 Q13: 2
13	 	 	40	 Q6: 0
14	 	 	37	 Q4: 2
15	 	 	34	 Q12: 0	 	12
16	 	 	16	 Q3: 0
17	 	 	38	 Q2: 1
18	 	 	14	 Q13: 1
19	 	 	19	 Q12: 0
20	 	 	13	 Q5: 1
21	 	 	21	 Q12: 0
22	 	 	21	 Q12: 0	 	11
23	 	 	21	 Q10: 0
24	 	 	22	 Q6: 1
25	 	 	27	 Q13: 0
26	 	 	16	 Q0: 0	 	7
27	 	 	20	 Q12: 1
28	 	 	18	 Q13: 2
29	 	 	37	 Q7: 2
30	 	 	38	 Q5: 1
31	 	 	16	 Q5: 2
32	 	 	26	 Q4: 1
33	 	 	39	 Q13: 1
34	 	 	19	 Q12: 0
35	 	 	35	 Q8: 2
36	 	 	26	 Q0: 1
37	 	 	9	 Q10: 2	 	11	6
38	 	 	33	 Q1: 2	 	36
39	 	 	29	 Q10: 0
40	 	 	27	 Q2: 2
41	 	 	23	 Q1: 2
42	 	 	15	 Q14: 0
43	 	 	40	 Q2: 1
44	 	 	28	 Q8: 1
45	 	 	23	 Q0: 1
46	 	 	13	 Q7: 0
47	 	 	24	 Q2: 2
48	 	 	9	 Q8: 0
49	 	 	14	 Q12: 1
50	 	 	10	 Q8: 1	 	33
51	 	 	22	 Q6: 0
52	 	 	40	 Q12: 1
53	 	 	29	 Q12: 0
54	 	 	37	 Q3: 1
55	 	 	32	 Q10: 2
56	 	 	13	 Q10: 1
57	 	 	23	 Q5: 2
58	 	 	32	 Q2: 2
59	 	 	19	 Q7: 1
60	 	 	35	 Q1: 2
61	 	 	17	 Q14: 0
62	 	 	12	 Q1: 0
63	 	 	33	 Q2: 2	 	14
64	 	 	39	 Q12: 0
65	 	 	27	 Q10: 1
66	 	 	10	 Q11: 1	 	19
67	 	 	10	 Q4: 2
68	 	 	34	 Q12: 0
69	 	 	11	 Q10: 0
70	 	 	27	 Q4: 1	 	27
71	 	 	9	 Q12: 2
72	 	 	38	 Q14: 0
73	 	 	34	 Q6: 1
74	 	 	19	 Q0: 2	 	22
75	 	 	23	 Q1: 0
76	 	 	13	 Q8: 2
77	 	 	32	 Q12: 0	 	54
78	 	 	23	 Q11: 0	 	50	30
79	 	 	17	 Q3: 0
80	 	 	18	 Q11: 1
81	 	 	32	 Q0: 0	 	3
82	 	 	40	 Q6: 2
83	 	 	36	 Q13: 1
84	 	 	31	 Q6: 1
85	 	 	24	 Q1: 1
86	 	 	21	 Q4: 0	 	57
87	 	 	30	 Q4: 0
88	 	 	28	 Q14: 0
89	 	 	15	 Q4: 2
90	 	 	29	 Q9: 0
91	 	 	18	 Q9: 0
92	 	 	31	 Q10: 1
93	 	 	14	 Q3: 0
94	 	 	19	 Q10: 1
95	 	 	9	 Q8: 1
96	 	 	18	 Q6: 0
97	 	 	25	 Q7: 0
98	 	 	33	 Q2: 1	 	3
99	 	 	10	 Q8: 0	 	70
100	 	 	29	 Q8: 2
101	 	 	24	 Q7: 0
102	 	 	38	 Q8: 2	 	47
103	 	 	32	 Q1: 2
104	 	 	9	 Q9: 2	 	29
105	 	 	22	 Q3: 2	 	28
106	 	 	27	 Q5: 0
107	 	 	18	 Q9: 0
108	 	 	19	 Q4: 0
109	 	 	33	 Q10: 2
110	 	 	13	 Q8: 2	 	23
111	 	 	18	 Q2: 2	 	71
112	 	 	38	 Q6: 1	 	49
113	 	 	27	 Q14: 2	 	94
114	 	 	39	 Q11: 2	 	73	44
115	 	 	36	 Q10: 1
116	 	 	16	 Q0: 2	 	71
117	 	 	28	 Q13: 0	 	11
118	 	 	18	 Q7: 1	 	29
119	 	 	25	 Q1: 2
120	 	 	31	 Q11: 2	 	53	32
121	 	 	25	 Q2: 1
122	 	 	24	 Q5: 2	 	103
123	 	 	28	 Q11: 0
124	 	 	25	 Q0: 0	 	69	86
125	 	 	20	 Q0: 2
126	 	 	13	 Q13: 2	 	66
127	 	 	26	 Q1: 0	 	78
128	 	 	30	 Q6: 1
129	 	 	35	 Q3: 0
130	 	 	14	 Q13: 0
131	 	 	10	 Q2: 2	 	115
132	 	 	19	 Q5: 1
133	 	 	32	 Q4: 0	 	105
134	 	 	15	 Q2: 2
135	 	 	31	 Q6: 0	 	130	101
136	 	 	31	 Q10: 1
137	 	 	24	 Q1: 0
138	 	 	38	 Q3: 2
139	 	 	34	 Q4: 1
140	 	 	24	 Q1: 2	 	2	52
141	 	 	24	 Q12: 2
142	 	 	19	 Q13: 0	 	42	11
143	 	 	19	 Q8: 0	 	23
144	 	 	12	 Q4: 1
145	 	 	31	 Q5: 2
146	 	 	17	 Q10: 1	 	20
147	 	 	25	 Q6: 1
148	 	 	19	 Q12: 0	 	84
149	 	 	12	 Q9: 2
150	 	 	14	 Q14: 0
151	 	 	26	 Q14: 0
152	 	 	31	 Q10: 0	 	120
153	 	 	34	 Q2: 2	 	11	73
154	 	 	39	 Q0: 2	 	13
155	 	 	13	 Q1: 0
156	 	 	27	 Q12: 2	 	61	138
157	 	 	18	 Q10: 0	 	86	152
158	 	 	14	 Q4: 2
159	 	 	16	 Q8: 2
160	 	 	25	 Q4: 1
161	 	 	16	 Q14: 1
162	 	 	31	 Q7: 2
163	 	 	21	 Q11: 1
164	 	 	25	 Q5: 1
165	 	 	19	 Q5: 0
166	 	 	40	 Q3: 1	 	95	34
167	 	 	40	 Q6: 2	 	142
168	 	 	15	 Q4: 2	 	1
169	 	 	18	 Q1: 1	 	136	34
170	 	 	22	 Q6: 1	 	65
171	 	 	20	 Q4: 1	 	147
172	 	 	24	 Q4: 1	 	73
173	 	 	18	 Q11: 0
174	 	 	28	 Q9: 2
175	 	 	34	 Q4: 1
176	 	 	26	 Q5: 1	 	14	146
177	 	 	14	 Q3: 1	 	34
178	 	 	27	 Q12: 1	 	9
179	 	 	15	 Q2: 0	 	131
180	 	 	11	 Q2: 0	 	1
181	 	 	33	 Q12: 2
182	 	 	34	 Q6: 1
183	 	 	17	 Q11: 0	 	105
184	 	 	19	 Q10: 2	 	126	67
185	 	 	35	 Q13: 1	 	47
186	 	 	36	 Q2: 2	 	83
187	 	 	15	 Q14: 1	 	10
188	 	 	39	 Q2: 2	 	161
189	 	 	23	 Q13: 0	 	155
190	 	 	14	 Q10: 2
191	 	 	12	 Q0: 1	 	49
192	 	 	39	 Q12: 2	 	21
193	 	 	31	 Q14: 1	 	33
194	 	 	37	 Q2: 2	 	175	78
195	 	 	25	 Q12: 0	 	49	145	4
196	 	 	22	 Q6: 0
197	 	 	40	 Q11: 2
198	 	 	20	 Q8: 2
199	 	 	25	 Q8: 1	 	42	74
200	 	 	29	 Q0: 0	 	25	78
====================================================================================================================
